135 3015
 3 4 6
 4 5 7
 1 5 8
 1 2 9
 2 3 10
 2 5 6
 1 3 7
 2 4 8
 3 5 9
 1 4 10
 8 9 11
 9 10 12
 6 10 13
 6 7 14
 7 8 15
 7 10 11
 6 8 12
 7 9 13
 8 10 14
 6 9 15
 1 13 14
 2 14 15
 3 11 15
 4 11 12
 5 12 13
 1 12 15
 2 11 13
 3 12 14
 4 13 15
 5 11 14
 1 6 11
 2 7 12
 3 8 13
 4 9 14
 5 10 15
 18 19 21
 19 20 22
 16 20 23
 16 17 24
 17 18 25
 17 20 21
 16 18 22
 17 19 23
 18 20 24
 16 19 25
 23 24 26
 24 25 27
 21 25 28
 21 22 29
 22 23 30
 22 25 26
 21 23 27
 22 24 28
 23 25 29
 21 24 30
 16 28 29
 17 29 30
 18 26 30
 19 26 27
 20 27 28
 16 27 30
 17 26 28
 18 27 29
 19 28 30
 20 26 29
 16 21 26
 17 22 27
 18 23 28
 19 24 29
 20 25 30
 33 34 36
 34 35 37
 31 35 38
 31 32 39
 32 33 40
 32 35 36
 31 33 37
 32 34 38
 33 35 39
 31 34 40
 38 39 41
 39 40 42
 36 40 43
 36 37 44
 37 38 45
 37 40 41
 36 38 42
 37 39 43
 38 40 44
 36 39 45
 31 43 44
 32 44 45
 33 41 45
 34 41 42
 35 42 43
 31 42 45
 32 41 43
 33 42 44
 34 43 45
 35 41 44
 31 36 41
 32 37 42
 33 38 43
 34 39 44
 35 40 45
 1 16 31
 2 17 32
 3 18 33
 4 19 34
 5 20 35
 6 21 36
 7 22 37
 8 23 38
 9 24 39
 10 25 40
 11 26 41
 12 27 42
 13 28 43
 14 29 44
 15 30 45
 3 19 36
 4 20 37
 1 20 38
 1 17 39
 2 18 40
 2 20 36
 1 18 37
 2 19 38
 3 20 39
 1 19 40
 8 24 41
 9 25 42
 6 25 43
 6 22 44
 7 23 45
 7 25 41
 6 23 42
 7 24 43
 8 25 44
 6 24 45
 1 28 44
 2 29 45
 3 26 45
 4 26 42
 5 27 43
 1 27 45
 2 26 43
 3 27 44
 4 28 45
 5 26 44
 1 21 41
 2 22 42
 3 23 43
 4 24 44
 5 25 45
 3 34 21
 4 35 22
 1 35 23
 1 32 24
 2 33 25
 2 35 21
 1 33 22
 2 34 23
 3 35 24
 1 34 25
 8 39 26
 9 40 27
 6 40 28
 6 37 29
 7 38 30
 7 40 26
 6 38 27
 7 39 28
 8 40 29
 6 39 30
 1 43 29
 2 44 30
 3 41 30
 4 41 27
 5 42 28
 1 42 30
 2 41 28
 3 42 29
 4 43 30
 5 41 29
 1 36 26
 2 37 27
 3 38 28
 4 39 29
 5 40 30
 18 4 36
 19 5 37
 16 5 38
 16 2 39
 17 3 40
 17 5 36
 16 3 37
 17 4 38
 18 5 39
 16 4 40
 23 9 41
 24 10 42
 21 10 43
 21 7 44
 22 8 45
 22 10 41
 21 8 42
 22 9 43
 23 10 44
 21 9 45
 16 13 44
 17 14 45
 18 11 45
 19 11 42
 20 12 43
 16 12 45
 17 11 43
 18 12 44
 19 13 45
 20 11 44
 16 6 41
 17 7 42
 18 8 43
 19 9 44
 20 10 45
 33 4 21
 34 5 22
 31 5 23
 31 2 24
 32 3 25
 32 5 21
 31 3 22
 32 4 23
 33 5 24
 31 4 25
 38 9 26
 39 10 27
 36 10 28
 36 7 29
 37 8 30
 37 10 26
 36 8 27
 37 9 28
 38 10 29
 36 9 30
 31 13 29
 32 14 30
 33 11 30
 34 11 27
 35 12 28
 31 12 30
 32 11 28
 33 12 29
 34 13 30
 35 11 29
 31 6 26
 32 7 27
 33 8 28
 34 9 29
 35 10 30
 18 34 6
 19 35 7
 16 35 8
 16 32 9
 17 33 10
 17 35 6
 16 33 7
 17 34 8
 18 35 9
 16 34 10
 23 39 11
 24 40 12
 21 40 13
 21 37 14
 22 38 15
 22 40 11
 21 38 12
 22 39 13
 23 40 14
 21 39 15
 16 43 14
 17 44 15
 18 41 15
 19 41 12
 20 42 13
 16 42 15
 17 41 13
 18 42 14
 19 43 15
 20 41 14
 16 36 11
 17 37 12
 18 38 13
 19 39 14
 20 40 15
 33 19 6
 34 20 7
 31 20 8
 31 17 9
 32 18 10
 32 20 6
 31 18 7
 32 19 8
 33 20 9
 31 19 10
 38 24 11
 39 25 12
 36 25 13
 36 22 14
 37 23 15
 37 25 11
 36 23 12
 37 24 13
 38 25 14
 36 24 15
 31 28 14
 32 29 15
 33 26 15
 34 26 12
 35 27 13
 31 27 15
 32 26 13
 33 27 14
 34 28 15
 35 26 14
 31 21 11
 32 22 12
 33 23 13
 34 24 14
 35 25 15
 48 49 51
 49 50 52
 46 50 53
 46 47 54
 47 48 55
 47 50 51
 46 48 52
 47 49 53
 48 50 54
 46 49 55
 53 54 56
 54 55 57
 51 55 58
 51 52 59
 52 53 60
 52 55 56
 51 53 57
 52 54 58
 53 55 59
 51 54 60
 46 58 59
 47 59 60
 48 56 60
 49 56 57
 50 57 58
 46 57 60
 47 56 58
 48 57 59
 49 58 60
 50 56 59
 46 51 56
 47 52 57
 48 53 58
 49 54 59
 50 55 60
 63 64 66
 64 65 67
 61 65 68
 61 62 69
 62 63 70
 62 65 66
 61 63 67
 62 64 68
 63 65 69
 61 64 70
 68 69 71
 69 70 72
 66 70 73
 66 67 74
 67 68 75
 67 70 71
 66 68 72
 67 69 73
 68 70 74
 66 69 75
 61 73 74
 62 74 75
 63 71 75
 64 71 72
 65 72 73
 61 72 75
 62 71 73
 63 72 74
 64 73 75
 65 71 74
 61 66 71
 62 67 72
 63 68 73
 64 69 74
 65 70 75
 78 79 81
 79 80 82
 76 80 83
 76 77 84
 77 78 85
 77 80 81
 76 78 82
 77 79 83
 78 80 84
 76 79 85
 83 84 86
 84 85 87
 81 85 88
 81 82 89
 82 83 90
 82 85 86
 81 83 87
 82 84 88
 83 85 89
 81 84 90
 76 88 89
 77 89 90
 78 86 90
 79 86 87
 80 87 88
 76 87 90
 77 86 88
 78 87 89
 79 88 90
 80 86 89
 76 81 86
 77 82 87
 78 83 88
 79 84 89
 80 85 90
 46 61 76
 47 62 77
 48 63 78
 49 64 79
 50 65 80
 51 66 81
 52 67 82
 53 68 83
 54 69 84
 55 70 85
 56 71 86
 57 72 87
 58 73 88
 59 74 89
 60 75 90
 48 64 81
 49 65 82
 46 65 83
 46 62 84
 47 63 85
 47 65 81
 46 63 82
 47 64 83
 48 65 84
 46 64 85
 53 69 86
 54 70 87
 51 70 88
 51 67 89
 52 68 90
 52 70 86
 51 68 87
 52 69 88
 53 70 89
 51 69 90
 46 73 89
 47 74 90
 48 71 90
 49 71 87
 50 72 88
 46 72 90
 47 71 88
 48 72 89
 49 73 90
 50 71 89
 46 66 86
 47 67 87
 48 68 88
 49 69 89
 50 70 90
 48 79 66
 49 80 67
 46 80 68
 46 77 69
 47 78 70
 47 80 66
 46 78 67
 47 79 68
 48 80 69
 46 79 70
 53 84 71
 54 85 72
 51 85 73
 51 82 74
 52 83 75
 52 85 71
 51 83 72
 52 84 73
 53 85 74
 51 84 75
 46 88 74
 47 89 75
 48 86 75
 49 86 72
 50 87 73
 46 87 75
 47 86 73
 48 87 74
 49 88 75
 50 86 74
 46 81 71
 47 82 72
 48 83 73
 49 84 74
 50 85 75
 63 49 81
 64 50 82
 61 50 83
 61 47 84
 62 48 85
 62 50 81
 61 48 82
 62 49 83
 63 50 84
 61 49 85
 68 54 86
 69 55 87
 66 55 88
 66 52 89
 67 53 90
 67 55 86
 66 53 87
 67 54 88
 68 55 89
 66 54 90
 61 58 89
 62 59 90
 63 56 90
 64 56 87
 65 57 88
 61 57 90
 62 56 88
 63 57 89
 64 58 90
 65 56 89
 61 51 86
 62 52 87
 63 53 88
 64 54 89
 65 55 90
 78 49 66
 79 50 67
 76 50 68
 76 47 69
 77 48 70
 77 50 66
 76 48 67
 77 49 68
 78 50 69
 76 49 70
 83 54 71
 84 55 72
 81 55 73
 81 52 74
 82 53 75
 82 55 71
 81 53 72
 82 54 73
 83 55 74
 81 54 75
 76 58 74
 77 59 75
 78 56 75
 79 56 72
 80 57 73
 76 57 75
 77 56 73
 78 57 74
 79 58 75
 80 56 74
 76 51 71
 77 52 72
 78 53 73
 79 54 74
 80 55 75
 63 79 51
 64 80 52
 61 80 53
 61 77 54
 62 78 55
 62 80 51
 61 78 52
 62 79 53
 63 80 54
 61 79 55
 68 84 56
 69 85 57
 66 85 58
 66 82 59
 67 83 60
 67 85 56
 66 83 57
 67 84 58
 68 85 59
 66 84 60
 61 88 59
 62 89 60
 63 86 60
 64 86 57
 65 87 58
 61 87 60
 62 86 58
 63 87 59
 64 88 60
 65 86 59
 61 81 56
 62 82 57
 63 83 58
 64 84 59
 65 85 60
 78 64 51
 79 65 52
 76 65 53
 76 62 54
 77 63 55
 77 65 51
 76 63 52
 77 64 53
 78 65 54
 76 64 55
 83 69 56
 84 70 57
 81 70 58
 81 67 59
 82 68 60
 82 70 56
 81 68 57
 82 69 58
 83 70 59
 81 69 60
 76 73 59
 77 74 60
 78 71 60
 79 71 57
 80 72 58
 76 72 60
 77 71 58
 78 72 59
 79 73 60
 80 71 59
 76 66 56
 77 67 57
 78 68 58
 79 69 59
 80 70 60
 93 94 96
 94 95 97
 91 95 98
 91 92 99
 92 93 100
 92 95 96
 91 93 97
 92 94 98
 93 95 99
 91 94 100
 98 99 101
 99 100 102
 96 100 103
 96 97 104
 97 98 105
 97 100 101
 96 98 102
 97 99 103
 98 100 104
 96 99 105
 91 103 104
 92 104 105
 93 101 105
 94 101 102
 95 102 103
 91 102 105
 92 101 103
 93 102 104
 94 103 105
 95 101 104
 91 96 101
 92 97 102
 93 98 103
 94 99 104
 95 100 105
 108 109 111
 109 110 112
 106 110 113
 106 107 114
 107 108 115
 107 110 111
 106 108 112
 107 109 113
 108 110 114
 106 109 115
 113 114 116
 114 115 117
 111 115 118
 111 112 119
 112 113 120
 112 115 116
 111 113 117
 112 114 118
 113 115 119
 111 114 120
 106 118 119
 107 119 120
 108 116 120
 109 116 117
 110 117 118
 106 117 120
 107 116 118
 108 117 119
 109 118 120
 110 116 119
 106 111 116
 107 112 117
 108 113 118
 109 114 119
 110 115 120
 123 124 126
 124 125 127
 121 125 128
 121 122 129
 122 123 130
 122 125 126
 121 123 127
 122 124 128
 123 125 129
 121 124 130
 128 129 131
 129 130 132
 126 130 133
 126 127 134
 127 128 135
 127 130 131
 126 128 132
 127 129 133
 128 130 134
 126 129 135
 121 133 134
 122 134 135
 123 131 135
 124 131 132
 125 132 133
 121 132 135
 122 131 133
 123 132 134
 124 133 135
 125 131 134
 121 126 131
 122 127 132
 123 128 133
 124 129 134
 125 130 135
 91 106 121
 92 107 122
 93 108 123
 94 109 124
 95 110 125
 96 111 126
 97 112 127
 98 113 128
 99 114 129
 100 115 130
 101 116 131
 102 117 132
 103 118 133
 104 119 134
 105 120 135
 93 109 126
 94 110 127
 91 110 128
 91 107 129
 92 108 130
 92 110 126
 91 108 127
 92 109 128
 93 110 129
 91 109 130
 98 114 131
 99 115 132
 96 115 133
 96 112 134
 97 113 135
 97 115 131
 96 113 132
 97 114 133
 98 115 134
 96 114 135
 91 118 134
 92 119 135
 93 116 135
 94 116 132
 95 117 133
 91 117 135
 92 116 133
 93 117 134
 94 118 135
 95 116 134
 91 111 131
 92 112 132
 93 113 133
 94 114 134
 95 115 135
 93 124 111
 94 125 112
 91 125 113
 91 122 114
 92 123 115
 92 125 111
 91 123 112
 92 124 113
 93 125 114
 91 124 115
 98 129 116
 99 130 117
 96 130 118
 96 127 119
 97 128 120
 97 130 116
 96 128 117
 97 129 118
 98 130 119
 96 129 120
 91 133 119
 92 134 120
 93 131 120
 94 131 117
 95 132 118
 91 132 120
 92 131 118
 93 132 119
 94 133 120
 95 131 119
 91 126 116
 92 127 117
 93 128 118
 94 129 119
 95 130 120
 108 94 126
 109 95 127
 106 95 128
 106 92 129
 107 93 130
 107 95 126
 106 93 127
 107 94 128
 108 95 129
 106 94 130
 113 99 131
 114 100 132
 111 100 133
 111 97 134
 112 98 135
 112 100 131
 111 98 132
 112 99 133
 113 100 134
 111 99 135
 106 103 134
 107 104 135
 108 101 135
 109 101 132
 110 102 133
 106 102 135
 107 101 133
 108 102 134
 109 103 135
 110 101 134
 106 96 131
 107 97 132
 108 98 133
 109 99 134
 110 100 135
 123 94 111
 124 95 112
 121 95 113
 121 92 114
 122 93 115
 122 95 111
 121 93 112
 122 94 113
 123 95 114
 121 94 115
 128 99 116
 129 100 117
 126 100 118
 126 97 119
 127 98 120
 127 100 116
 126 98 117
 127 99 118
 128 100 119
 126 99 120
 121 103 119
 122 104 120
 123 101 120
 124 101 117
 125 102 118
 121 102 120
 122 101 118
 123 102 119
 124 103 120
 125 101 119
 121 96 116
 122 97 117
 123 98 118
 124 99 119
 125 100 120
 108 124 96
 109 125 97
 106 125 98
 106 122 99
 107 123 100
 107 125 96
 106 123 97
 107 124 98
 108 125 99
 106 124 100
 113 129 101
 114 130 102
 111 130 103
 111 127 104
 112 128 105
 112 130 101
 111 128 102
 112 129 103
 113 130 104
 111 129 105
 106 133 104
 107 134 105
 108 131 105
 109 131 102
 110 132 103
 106 132 105
 107 131 103
 108 132 104
 109 133 105
 110 131 104
 106 126 101
 107 127 102
 108 128 103
 109 129 104
 110 130 105
 123 109 96
 124 110 97
 121 110 98
 121 107 99
 122 108 100
 122 110 96
 121 108 97
 122 109 98
 123 110 99
 121 109 100
 128 114 101
 129 115 102
 126 115 103
 126 112 104
 127 113 105
 127 115 101
 126 113 102
 127 114 103
 128 115 104
 126 114 105
 121 118 104
 122 119 105
 123 116 105
 124 116 102
 125 117 103
 121 117 105
 122 116 103
 123 117 104
 124 118 105
 125 116 104
 121 111 101
 122 112 102
 123 113 103
 124 114 104
 125 115 105
 1 46 91
 2 47 92
 3 48 93
 4 49 94
 5 50 95
 6 51 96
 7 52 97
 8 53 98
 9 54 99
 10 55 100
 11 56 101
 12 57 102
 13 58 103
 14 59 104
 15 60 105
 16 61 106
 17 62 107
 18 63 108
 19 64 109
 20 65 110
 21 66 111
 22 67 112
 23 68 113
 24 69 114
 25 70 115
 26 71 116
 27 72 117
 28 73 118
 29 74 119
 30 75 120
 31 76 121
 32 77 122
 33 78 123
 34 79 124
 35 80 125
 36 81 126
 37 82 127
 38 83 128
 39 84 129
 40 85 130
 41 86 131
 42 87 132
 43 88 133
 44 89 134
 45 90 135
 3 49 96
 4 50 97
 1 50 98
 1 47 99
 2 48 100
 2 50 96
 1 48 97
 2 49 98
 3 50 99
 1 49 100
 8 54 101
 9 55 102
 6 55 103
 6 52 104
 7 53 105
 7 55 101
 6 53 102
 7 54 103
 8 55 104
 6 54 105
 1 58 104
 2 59 105
 3 56 105
 4 56 102
 5 57 103
 1 57 105
 2 56 103
 3 57 104
 4 58 105
 5 56 104
 1 51 101
 2 52 102
 3 53 103
 4 54 104
 5 55 105
 18 64 111
 19 65 112
 16 65 113
 16 62 114
 17 63 115
 17 65 111
 16 63 112
 17 64 113
 18 65 114
 16 64 115
 23 69 116
 24 70 117
 21 70 118
 21 67 119
 22 68 120
 22 70 116
 21 68 117
 22 69 118
 23 70 119
 21 69 120
 16 73 119
 17 74 120
 18 71 120
 19 71 117
 20 72 118
 16 72 120
 17 71 118
 18 72 119
 19 73 120
 20 71 119
 16 66 116
 17 67 117
 18 68 118
 19 69 119
 20 70 120
 33 79 126
 34 80 127
 31 80 128
 31 77 129
 32 78 130
 32 80 126
 31 78 127
 32 79 128
 33 80 129
 31 79 130
 38 84 131
 39 85 132
 36 85 133
 36 82 134
 37 83 135
 37 85 131
 36 83 132
 37 84 133
 38 85 134
 36 84 135
 31 88 134
 32 89 135
 33 86 135
 34 86 132
 35 87 133
 31 87 135
 32 86 133
 33 87 134
 34 88 135
 35 86 134
 31 81 131
 32 82 132
 33 83 133
 34 84 134
 35 85 135
 1 61 121
 2 62 122
 3 63 123
 4 64 124
 5 65 125
 6 66 126
 7 67 127
 8 68 128
 9 69 129
 10 70 130
 11 71 131
 12 72 132
 13 73 133
 14 74 134
 15 75 135
 3 64 126
 4 65 127
 1 65 128
 1 62 129
 2 63 130
 2 65 126
 1 63 127
 2 64 128
 3 65 129
 1 64 130
 8 69 131
 9 70 132
 6 70 133
 6 67 134
 7 68 135
 7 70 131
 6 68 132
 7 69 133
 8 70 134
 6 69 135
 1 73 134
 2 74 135
 3 71 135
 4 71 132
 5 72 133
 1 72 135
 2 71 133
 3 72 134
 4 73 135
 5 71 134
 1 66 131
 2 67 132
 3 68 133
 4 69 134
 5 70 135
 3 79 111
 4 80 112
 1 80 113
 1 77 114
 2 78 115
 2 80 111
 1 78 112
 2 79 113
 3 80 114
 1 79 115
 8 84 116
 9 85 117
 6 85 118
 6 82 119
 7 83 120
 7 85 116
 6 83 117
 7 84 118
 8 85 119
 6 84 120
 1 88 119
 2 89 120
 3 86 120
 4 86 117
 5 87 118
 1 87 120
 2 86 118
 3 87 119
 4 88 120
 5 86 119
 1 81 116
 2 82 117
 3 83 118
 4 84 119
 5 85 120
 18 49 126
 19 50 127
 16 50 128
 16 47 129
 17 48 130
 17 50 126
 16 48 127
 17 49 128
 18 50 129
 16 49 130
 23 54 131
 24 55 132
 21 55 133
 21 52 134
 22 53 135
 22 55 131
 21 53 132
 22 54 133
 23 55 134
 21 54 135
 16 58 134
 17 59 135
 18 56 135
 19 56 132
 20 57 133
 16 57 135
 17 56 133
 18 57 134
 19 58 135
 20 56 134
 16 51 131
 17 52 132
 18 53 133
 19 54 134
 20 55 135
 33 49 111
 34 50 112
 31 50 113
 31 47 114
 32 48 115
 32 50 111
 31 48 112
 32 49 113
 33 50 114
 31 49 115
 38 54 116
 39 55 117
 36 55 118
 36 52 119
 37 53 120
 37 55 116
 36 53 117
 37 54 118
 38 55 119
 36 54 120
 31 58 119
 32 59 120
 33 56 120
 34 56 117
 35 57 118
 31 57 120
 32 56 118
 33 57 119
 34 58 120
 35 56 119
 31 51 116
 32 52 117
 33 53 118
 34 54 119
 35 55 120
 18 79 96
 19 80 97
 16 80 98
 16 77 99
 17 78 100
 17 80 96
 16 78 97
 17 79 98
 18 80 99
 16 79 100
 23 84 101
 24 85 102
 21 85 103
 21 82 104
 22 83 105
 22 85 101
 21 83 102
 22 84 103
 23 85 104
 21 84 105
 16 88 104
 17 89 105
 18 86 105
 19 86 102
 20 87 103
 16 87 105
 17 86 103
 18 87 104
 19 88 105
 20 86 104
 16 81 101
 17 82 102
 18 83 103
 19 84 104
 20 85 105
 33 64 96
 34 65 97
 31 65 98
 31 62 99
 32 63 100
 32 65 96
 31 63 97
 32 64 98
 33 65 99
 31 64 100
 38 69 101
 39 70 102
 36 70 103
 36 67 104
 37 68 105
 37 70 101
 36 68 102
 37 69 103
 38 70 104
 36 69 105
 31 73 104
 32 74 105
 33 71 105
 34 71 102
 35 72 103
 31 72 105
 32 71 103
 33 72 104
 34 73 105
 35 71 104
 31 66 101
 32 67 102
 33 68 103
 34 69 104
 35 70 105
 3 94 51
 4 95 52
 1 95 53
 1 92 54
 2 93 55
 2 95 51
 1 93 52
 2 94 53
 3 95 54
 1 94 55
 8 99 56
 9 100 57
 6 100 58
 6 97 59
 7 98 60
 7 100 56
 6 98 57
 7 99 58
 8 100 59
 6 99 60
 1 103 59
 2 104 60
 3 101 60
 4 101 57
 5 102 58
 1 102 60
 2 101 58
 3 102 59
 4 103 60
 5 101 59
 1 96 56
 2 97 57
 3 98 58
 4 99 59
 5 100 60
 18 109 66
 19 110 67
 16 110 68
 16 107 69
 17 108 70
 17 110 66
 16 108 67
 17 109 68
 18 110 69
 16 109 70
 23 114 71
 24 115 72
 21 115 73
 21 112 74
 22 113 75
 22 115 71
 21 113 72
 22 114 73
 23 115 74
 21 114 75
 16 118 74
 17 119 75
 18 116 75
 19 116 72
 20 117 73
 16 117 75
 17 116 73
 18 117 74
 19 118 75
 20 116 74
 16 111 71
 17 112 72
 18 113 73
 19 114 74
 20 115 75
 33 124 81
 34 125 82
 31 125 83
 31 122 84
 32 123 85
 32 125 81
 31 123 82
 32 124 83
 33 125 84
 31 124 85
 38 129 86
 39 130 87
 36 130 88
 36 127 89
 37 128 90
 37 130 86
 36 128 87
 37 129 88
 38 130 89
 36 129 90
 31 133 89
 32 134 90
 33 131 90
 34 131 87
 35 132 88
 31 132 90
 32 131 88
 33 132 89
 34 133 90
 35 131 89
 31 126 86
 32 127 87
 33 128 88
 34 129 89
 35 130 90
 1 106 76
 2 107 77
 3 108 78
 4 109 79
 5 110 80
 6 111 81
 7 112 82
 8 113 83
 9 114 84
 10 115 85
 11 116 86
 12 117 87
 13 118 88
 14 119 89
 15 120 90
 3 109 81
 4 110 82
 1 110 83
 1 107 84
 2 108 85
 2 110 81
 1 108 82
 2 109 83
 3 110 84
 1 109 85
 8 114 86
 9 115 87
 6 115 88
 6 112 89
 7 113 90
 7 115 86
 6 113 87
 7 114 88
 8 115 89
 6 114 90
 1 118 89
 2 119 90
 3 116 90
 4 116 87
 5 117 88
 1 117 90
 2 116 88
 3 117 89
 4 118 90
 5 116 89
 1 111 86
 2 112 87
 3 113 88
 4 114 89
 5 115 90
 3 124 66
 4 125 67
 1 125 68
 1 122 69
 2 123 70
 2 125 66
 1 123 67
 2 124 68
 3 125 69
 1 124 70
 8 129 71
 9 130 72
 6 130 73
 6 127 74
 7 128 75
 7 130 71
 6 128 72
 7 129 73
 8 130 74
 6 129 75
 1 133 74
 2 134 75
 3 131 75
 4 131 72
 5 132 73
 1 132 75
 2 131 73
 3 132 74
 4 133 75
 5 131 74
 1 126 71
 2 127 72
 3 128 73
 4 129 74
 5 130 75
 18 94 81
 19 95 82
 16 95 83
 16 92 84
 17 93 85
 17 95 81
 16 93 82
 17 94 83
 18 95 84
 16 94 85
 23 99 86
 24 100 87
 21 100 88
 21 97 89
 22 98 90
 22 100 86
 21 98 87
 22 99 88
 23 100 89
 21 99 90
 16 103 89
 17 104 90
 18 101 90
 19 101 87
 20 102 88
 16 102 90
 17 101 88
 18 102 89
 19 103 90
 20 101 89
 16 96 86
 17 97 87
 18 98 88
 19 99 89
 20 100 90
 33 94 66
 34 95 67
 31 95 68
 31 92 69
 32 93 70
 32 95 66
 31 93 67
 32 94 68
 33 95 69
 31 94 70
 38 99 71
 39 100 72
 36 100 73
 36 97 74
 37 98 75
 37 100 71
 36 98 72
 37 99 73
 38 100 74
 36 99 75
 31 103 74
 32 104 75
 33 101 75
 34 101 72
 35 102 73
 31 102 75
 32 101 73
 33 102 74
 34 103 75
 35 101 74
 31 96 71
 32 97 72
 33 98 73
 34 99 74
 35 100 75
 18 124 51
 19 125 52
 16 125 53
 16 122 54
 17 123 55
 17 125 51
 16 123 52
 17 124 53
 18 125 54
 16 124 55
 23 129 56
 24 130 57
 21 130 58
 21 127 59
 22 128 60
 22 130 56
 21 128 57
 22 129 58
 23 130 59
 21 129 60
 16 133 59
 17 134 60
 18 131 60
 19 131 57
 20 132 58
 16 132 60
 17 131 58
 18 132 59
 19 133 60
 20 131 59
 16 126 56
 17 127 57
 18 128 58
 19 129 59
 20 130 60
 33 109 51
 34 110 52
 31 110 53
 31 107 54
 32 108 55
 32 110 51
 31 108 52
 32 109 53
 33 110 54
 31 109 55
 38 114 56
 39 115 57
 36 115 58
 36 112 59
 37 113 60
 37 115 56
 36 113 57
 37 114 58
 38 115 59
 36 114 60
 31 118 59
 32 119 60
 33 116 60
 34 116 57
 35 117 58
 31 117 60
 32 116 58
 33 117 59
 34 118 60
 35 116 59
 31 111 56
 32 112 57
 33 113 58
 34 114 59
 35 115 60
 48 4 96
 49 5 97
 46 5 98
 46 2 99
 47 3 100
 47 5 96
 46 3 97
 47 4 98
 48 5 99
 46 4 100
 53 9 101
 54 10 102
 51 10 103
 51 7 104
 52 8 105
 52 10 101
 51 8 102
 52 9 103
 53 10 104
 51 9 105
 46 13 104
 47 14 105
 48 11 105
 49 11 102
 50 12 103
 46 12 105
 47 11 103
 48 12 104
 49 13 105
 50 11 104
 46 6 101
 47 7 102
 48 8 103
 49 9 104
 50 10 105
 63 19 111
 64 20 112
 61 20 113
 61 17 114
 62 18 115
 62 20 111
 61 18 112
 62 19 113
 63 20 114
 61 19 115
 68 24 116
 69 25 117
 66 25 118
 66 22 119
 67 23 120
 67 25 116
 66 23 117
 67 24 118
 68 25 119
 66 24 120
 61 28 119
 62 29 120
 63 26 120
 64 26 117
 65 27 118
 61 27 120
 62 26 118
 63 27 119
 64 28 120
 65 26 119
 61 21 116
 62 22 117
 63 23 118
 64 24 119
 65 25 120
 78 34 126
 79 35 127
 76 35 128
 76 32 129
 77 33 130
 77 35 126
 76 33 127
 77 34 128
 78 35 129
 76 34 130
 83 39 131
 84 40 132
 81 40 133
 81 37 134
 82 38 135
 82 40 131
 81 38 132
 82 39 133
 83 40 134
 81 39 135
 76 43 134
 77 44 135
 78 41 135
 79 41 132
 80 42 133
 76 42 135
 77 41 133
 78 42 134
 79 43 135
 80 41 134
 76 36 131
 77 37 132
 78 38 133
 79 39 134
 80 40 135
 46 16 121
 47 17 122
 48 18 123
 49 19 124
 50 20 125
 51 21 126
 52 22 127
 53 23 128
 54 24 129
 55 25 130
 56 26 131
 57 27 132
 58 28 133
 59 29 134
 60 30 135
 48 19 126
 49 20 127
 46 20 128
 46 17 129
 47 18 130
 47 20 126
 46 18 127
 47 19 128
 48 20 129
 46 19 130
 53 24 131
 54 25 132
 51 25 133
 51 22 134
 52 23 135
 52 25 131
 51 23 132
 52 24 133
 53 25 134
 51 24 135
 46 28 134
 47 29 135
 48 26 135
 49 26 132
 50 27 133
 46 27 135
 47 26 133
 48 27 134
 49 28 135
 50 26 134
 46 21 131
 47 22 132
 48 23 133
 49 24 134
 50 25 135
 48 34 111
 49 35 112
 46 35 113
 46 32 114
 47 33 115
 47 35 111
 46 33 112
 47 34 113
 48 35 114
 46 34 115
 53 39 116
 54 40 117
 51 40 118
 51 37 119
 52 38 120
 52 40 116
 51 38 117
 52 39 118
 53 40 119
 51 39 120
 46 43 119
 47 44 120
 48 41 120
 49 41 117
 50 42 118
 46 42 120
 47 41 118
 48 42 119
 49 43 120
 50 41 119
 46 36 116
 47 37 117
 48 38 118
 49 39 119
 50 40 120
 63 4 126
 64 5 127
 61 5 128
 61 2 129
 62 3 130
 62 5 126
 61 3 127
 62 4 128
 63 5 129
 61 4 130
 68 9 131
 69 10 132
 66 10 133
 66 7 134
 67 8 135
 67 10 131
 66 8 132
 67 9 133
 68 10 134
 66 9 135
 61 13 134
 62 14 135
 63 11 135
 64 11 132
 65 12 133
 61 12 135
 62 11 133
 63 12 134
 64 13 135
 65 11 134
 61 6 131
 62 7 132
 63 8 133
 64 9 134
 65 10 135
 78 4 111
 79 5 112
 76 5 113
 76 2 114
 77 3 115
 77 5 111
 76 3 112
 77 4 113
 78 5 114
 76 4 115
 83 9 116
 84 10 117
 81 10 118
 81 7 119
 82 8 120
 82 10 116
 81 8 117
 82 9 118
 83 10 119
 81 9 120
 76 13 119
 77 14 120
 78 11 120
 79 11 117
 80 12 118
 76 12 120
 77 11 118
 78 12 119
 79 13 120
 80 11 119
 76 6 116
 77 7 117
 78 8 118
 79 9 119
 80 10 120
 63 34 96
 64 35 97
 61 35 98
 61 32 99
 62 33 100
 62 35 96
 61 33 97
 62 34 98
 63 35 99
 61 34 100
 68 39 101
 69 40 102
 66 40 103
 66 37 104
 67 38 105
 67 40 101
 66 38 102
 67 39 103
 68 40 104
 66 39 105
 61 43 104
 62 44 105
 63 41 105
 64 41 102
 65 42 103
 61 42 105
 62 41 103
 63 42 104
 64 43 105
 65 41 104
 61 36 101
 62 37 102
 63 38 103
 64 39 104
 65 40 105
 78 19 96
 79 20 97
 76 20 98
 76 17 99
 77 18 100
 77 20 96
 76 18 97
 77 19 98
 78 20 99
 76 19 100
 83 24 101
 84 25 102
 81 25 103
 81 22 104
 82 23 105
 82 25 101
 81 23 102
 82 24 103
 83 25 104
 81 24 105
 76 28 104
 77 29 105
 78 26 105
 79 26 102
 80 27 103
 76 27 105
 77 26 103
 78 27 104
 79 28 105
 80 26 104
 76 21 101
 77 22 102
 78 23 103
 79 24 104
 80 25 105
 93 4 51
 94 5 52
 91 5 53
 91 2 54
 92 3 55
 92 5 51
 91 3 52
 92 4 53
 93 5 54
 91 4 55
 98 9 56
 99 10 57
 96 10 58
 96 7 59
 97 8 60
 97 10 56
 96 8 57
 97 9 58
 98 10 59
 96 9 60
 91 13 59
 92 14 60
 93 11 60
 94 11 57
 95 12 58
 91 12 60
 92 11 58
 93 12 59
 94 13 60
 95 11 59
 91 6 56
 92 7 57
 93 8 58
 94 9 59
 95 10 60
 108 19 66
 109 20 67
 106 20 68
 106 17 69
 107 18 70
 107 20 66
 106 18 67
 107 19 68
 108 20 69
 106 19 70
 113 24 71
 114 25 72
 111 25 73
 111 22 74
 112 23 75
 112 25 71
 111 23 72
 112 24 73
 113 25 74
 111 24 75
 106 28 74
 107 29 75
 108 26 75
 109 26 72
 110 27 73
 106 27 75
 107 26 73
 108 27 74
 109 28 75
 110 26 74
 106 21 71
 107 22 72
 108 23 73
 109 24 74
 110 25 75
 123 34 81
 124 35 82
 121 35 83
 121 32 84
 122 33 85
 122 35 81
 121 33 82
 122 34 83
 123 35 84
 121 34 85
 128 39 86
 129 40 87
 126 40 88
 126 37 89
 127 38 90
 127 40 86
 126 38 87
 127 39 88
 128 40 89
 126 39 90
 121 43 89
 122 44 90
 123 41 90
 124 41 87
 125 42 88
 121 42 90
 122 41 88
 123 42 89
 124 43 90
 125 41 89
 121 36 86
 122 37 87
 123 38 88
 124 39 89
 125 40 90
 91 16 76
 92 17 77
 93 18 78
 94 19 79
 95 20 80
 96 21 81
 97 22 82
 98 23 83
 99 24 84
 100 25 85
 101 26 86
 102 27 87
 103 28 88
 104 29 89
 105 30 90
 93 19 81
 94 20 82
 91 20 83
 91 17 84
 92 18 85
 92 20 81
 91 18 82
 92 19 83
 93 20 84
 91 19 85
 98 24 86
 99 25 87
 96 25 88
 96 22 89
 97 23 90
 97 25 86
 96 23 87
 97 24 88
 98 25 89
 96 24 90
 91 28 89
 92 29 90
 93 26 90
 94 26 87
 95 27 88
 91 27 90
 92 26 88
 93 27 89
 94 28 90
 95 26 89
 91 21 86
 92 22 87
 93 23 88
 94 24 89
 95 25 90
 93 34 66
 94 35 67
 91 35 68
 91 32 69
 92 33 70
 92 35 66
 91 33 67
 92 34 68
 93 35 69
 91 34 70
 98 39 71
 99 40 72
 96 40 73
 96 37 74
 97 38 75
 97 40 71
 96 38 72
 97 39 73
 98 40 74
 96 39 75
 91 43 74
 92 44 75
 93 41 75
 94 41 72
 95 42 73
 91 42 75
 92 41 73
 93 42 74
 94 43 75
 95 41 74
 91 36 71
 92 37 72
 93 38 73
 94 39 74
 95 40 75
 108 4 81
 109 5 82
 106 5 83
 106 2 84
 107 3 85
 107 5 81
 106 3 82
 107 4 83
 108 5 84
 106 4 85
 113 9 86
 114 10 87
 111 10 88
 111 7 89
 112 8 90
 112 10 86
 111 8 87
 112 9 88
 113 10 89
 111 9 90
 106 13 89
 107 14 90
 108 11 90
 109 11 87
 110 12 88
 106 12 90
 107 11 88
 108 12 89
 109 13 90
 110 11 89
 106 6 86
 107 7 87
 108 8 88
 109 9 89
 110 10 90
 123 4 66
 124 5 67
 121 5 68
 121 2 69
 122 3 70
 122 5 66
 121 3 67
 122 4 68
 123 5 69
 121 4 70
 128 9 71
 129 10 72
 126 10 73
 126 7 74
 127 8 75
 127 10 71
 126 8 72
 127 9 73
 128 10 74
 126 9 75
 121 13 74
 122 14 75
 123 11 75
 124 11 72
 125 12 73
 121 12 75
 122 11 73
 123 12 74
 124 13 75
 125 11 74
 121 6 71
 122 7 72
 123 8 73
 124 9 74
 125 10 75
 108 34 51
 109 35 52
 106 35 53
 106 32 54
 107 33 55
 107 35 51
 106 33 52
 107 34 53
 108 35 54
 106 34 55
 113 39 56
 114 40 57
 111 40 58
 111 37 59
 112 38 60
 112 40 56
 111 38 57
 112 39 58
 113 40 59
 111 39 60
 106 43 59
 107 44 60
 108 41 60
 109 41 57
 110 42 58
 106 42 60
 107 41 58
 108 42 59
 109 43 60
 110 41 59
 106 36 56
 107 37 57
 108 38 58
 109 39 59
 110 40 60
 123 19 51
 124 20 52
 121 20 53
 121 17 54
 122 18 55
 122 20 51
 121 18 52
 122 19 53
 123 20 54
 121 19 55
 128 24 56
 129 25 57
 126 25 58
 126 22 59
 127 23 60
 127 25 56
 126 23 57
 127 24 58
 128 25 59
 126 24 60
 121 28 59
 122 29 60
 123 26 60
 124 26 57
 125 27 58
 121 27 60
 122 26 58
 123 27 59
 124 28 60
 125 26 59
 121 21 56
 122 22 57
 123 23 58
 124 24 59
 125 25 60
 48 94 6
 49 95 7
 46 95 8
 46 92 9
 47 93 10
 47 95 6
 46 93 7
 47 94 8
 48 95 9
 46 94 10
 53 99 11
 54 100 12
 51 100 13
 51 97 14
 52 98 15
 52 100 11
 51 98 12
 52 99 13
 53 100 14
 51 99 15
 46 103 14
 47 104 15
 48 101 15
 49 101 12
 50 102 13
 46 102 15
 47 101 13
 48 102 14
 49 103 15
 50 101 14
 46 96 11
 47 97 12
 48 98 13
 49 99 14
 50 100 15
 63 109 21
 64 110 22
 61 110 23
 61 107 24
 62 108 25
 62 110 21
 61 108 22
 62 109 23
 63 110 24
 61 109 25
 68 114 26
 69 115 27
 66 115 28
 66 112 29
 67 113 30
 67 115 26
 66 113 27
 67 114 28
 68 115 29
 66 114 30
 61 118 29
 62 119 30
 63 116 30
 64 116 27
 65 117 28
 61 117 30
 62 116 28
 63 117 29
 64 118 30
 65 116 29
 61 111 26
 62 112 27
 63 113 28
 64 114 29
 65 115 30
 78 124 36
 79 125 37
 76 125 38
 76 122 39
 77 123 40
 77 125 36
 76 123 37
 77 124 38
 78 125 39
 76 124 40
 83 129 41
 84 130 42
 81 130 43
 81 127 44
 82 128 45
 82 130 41
 81 128 42
 82 129 43
 83 130 44
 81 129 45
 76 133 44
 77 134 45
 78 131 45
 79 131 42
 80 132 43
 76 132 45
 77 131 43
 78 132 44
 79 133 45
 80 131 44
 76 126 41
 77 127 42
 78 128 43
 79 129 44
 80 130 45
 46 106 31
 47 107 32
 48 108 33
 49 109 34
 50 110 35
 51 111 36
 52 112 37
 53 113 38
 54 114 39
 55 115 40
 56 116 41
 57 117 42
 58 118 43
 59 119 44
 60 120 45
 48 109 36
 49 110 37
 46 110 38
 46 107 39
 47 108 40
 47 110 36
 46 108 37
 47 109 38
 48 110 39
 46 109 40
 53 114 41
 54 115 42
 51 115 43
 51 112 44
 52 113 45
 52 115 41
 51 113 42
 52 114 43
 53 115 44
 51 114 45
 46 118 44
 47 119 45
 48 116 45
 49 116 42
 50 117 43
 46 117 45
 47 116 43
 48 117 44
 49 118 45
 50 116 44
 46 111 41
 47 112 42
 48 113 43
 49 114 44
 50 115 45
 48 124 21
 49 125 22
 46 125 23
 46 122 24
 47 123 25
 47 125 21
 46 123 22
 47 124 23
 48 125 24
 46 124 25
 53 129 26
 54 130 27
 51 130 28
 51 127 29
 52 128 30
 52 130 26
 51 128 27
 52 129 28
 53 130 29
 51 129 30
 46 133 29
 47 134 30
 48 131 30
 49 131 27
 50 132 28
 46 132 30
 47 131 28
 48 132 29
 49 133 30
 50 131 29
 46 126 26
 47 127 27
 48 128 28
 49 129 29
 50 130 30
 63 94 36
 64 95 37
 61 95 38
 61 92 39
 62 93 40
 62 95 36
 61 93 37
 62 94 38
 63 95 39
 61 94 40
 68 99 41
 69 100 42
 66 100 43
 66 97 44
 67 98 45
 67 100 41
 66 98 42
 67 99 43
 68 100 44
 66 99 45
 61 103 44
 62 104 45
 63 101 45
 64 101 42
 65 102 43
 61 102 45
 62 101 43
 63 102 44
 64 103 45
 65 101 44
 61 96 41
 62 97 42
 63 98 43
 64 99 44
 65 100 45
 78 94 21
 79 95 22
 76 95 23
 76 92 24
 77 93 25
 77 95 21
 76 93 22
 77 94 23
 78 95 24
 76 94 25
 83 99 26
 84 100 27
 81 100 28
 81 97 29
 82 98 30
 82 100 26
 81 98 27
 82 99 28
 83 100 29
 81 99 30
 76 103 29
 77 104 30
 78 101 30
 79 101 27
 80 102 28
 76 102 30
 77 101 28
 78 102 29
 79 103 30
 80 101 29
 76 96 26
 77 97 27
 78 98 28
 79 99 29
 80 100 30
 63 124 6
 64 125 7
 61 125 8
 61 122 9
 62 123 10
 62 125 6
 61 123 7
 62 124 8
 63 125 9
 61 124 10
 68 129 11
 69 130 12
 66 130 13
 66 127 14
 67 128 15
 67 130 11
 66 128 12
 67 129 13
 68 130 14
 66 129 15
 61 133 14
 62 134 15
 63 131 15
 64 131 12
 65 132 13
 61 132 15
 62 131 13
 63 132 14
 64 133 15
 65 131 14
 61 126 11
 62 127 12
 63 128 13
 64 129 14
 65 130 15
 78 109 6
 79 110 7
 76 110 8
 76 107 9
 77 108 10
 77 110 6
 76 108 7
 77 109 8
 78 110 9
 76 109 10
 83 114 11
 84 115 12
 81 115 13
 81 112 14
 82 113 15
 82 115 11
 81 113 12
 82 114 13
 83 115 14
 81 114 15
 76 118 14
 77 119 15
 78 116 15
 79 116 12
 80 117 13
 76 117 15
 77 116 13
 78 117 14
 79 118 15
 80 116 14
 76 111 11
 77 112 12
 78 113 13
 79 114 14
 80 115 15
 93 49 6
 94 50 7
 91 50 8
 91 47 9
 92 48 10
 92 50 6
 91 48 7
 92 49 8
 93 50 9
 91 49 10
 98 54 11
 99 55 12
 96 55 13
 96 52 14
 97 53 15
 97 55 11
 96 53 12
 97 54 13
 98 55 14
 96 54 15
 91 58 14
 92 59 15
 93 56 15
 94 56 12
 95 57 13
 91 57 15
 92 56 13
 93 57 14
 94 58 15
 95 56 14
 91 51 11
 92 52 12
 93 53 13
 94 54 14
 95 55 15
 108 64 21
 109 65 22
 106 65 23
 106 62 24
 107 63 25
 107 65 21
 106 63 22
 107 64 23
 108 65 24
 106 64 25
 113 69 26
 114 70 27
 111 70 28
 111 67 29
 112 68 30
 112 70 26
 111 68 27
 112 69 28
 113 70 29
 111 69 30
 106 73 29
 107 74 30
 108 71 30
 109 71 27
 110 72 28
 106 72 30
 107 71 28
 108 72 29
 109 73 30
 110 71 29
 106 66 26
 107 67 27
 108 68 28
 109 69 29
 110 70 30
 123 79 36
 124 80 37
 121 80 38
 121 77 39
 122 78 40
 122 80 36
 121 78 37
 122 79 38
 123 80 39
 121 79 40
 128 84 41
 129 85 42
 126 85 43
 126 82 44
 127 83 45
 127 85 41
 126 83 42
 127 84 43
 128 85 44
 126 84 45
 121 88 44
 122 89 45
 123 86 45
 124 86 42
 125 87 43
 121 87 45
 122 86 43
 123 87 44
 124 88 45
 125 86 44
 121 81 41
 122 82 42
 123 83 43
 124 84 44
 125 85 45
 91 61 31
 92 62 32
 93 63 33
 94 64 34
 95 65 35
 96 66 36
 97 67 37
 98 68 38
 99 69 39
 100 70 40
 101 71 41
 102 72 42
 103 73 43
 104 74 44
 105 75 45
 93 64 36
 94 65 37
 91 65 38
 91 62 39
 92 63 40
 92 65 36
 91 63 37
 92 64 38
 93 65 39
 91 64 40
 98 69 41
 99 70 42
 96 70 43
 96 67 44
 97 68 45
 97 70 41
 96 68 42
 97 69 43
 98 70 44
 96 69 45
 91 73 44
 92 74 45
 93 71 45
 94 71 42
 95 72 43
 91 72 45
 92 71 43
 93 72 44
 94 73 45
 95 71 44
 91 66 41
 92 67 42
 93 68 43
 94 69 44
 95 70 45
 93 79 21
 94 80 22
 91 80 23
 91 77 24
 92 78 25
 92 80 21
 91 78 22
 92 79 23
 93 80 24
 91 79 25
 98 84 26
 99 85 27
 96 85 28
 96 82 29
 97 83 30
 97 85 26
 96 83 27
 97 84 28
 98 85 29
 96 84 30
 91 88 29
 92 89 30
 93 86 30
 94 86 27
 95 87 28
 91 87 30
 92 86 28
 93 87 29
 94 88 30
 95 86 29
 91 81 26
 92 82 27
 93 83 28
 94 84 29
 95 85 30
 108 49 36
 109 50 37
 106 50 38
 106 47 39
 107 48 40
 107 50 36
 106 48 37
 107 49 38
 108 50 39
 106 49 40
 113 54 41
 114 55 42
 111 55 43
 111 52 44
 112 53 45
 112 55 41
 111 53 42
 112 54 43
 113 55 44
 111 54 45
 106 58 44
 107 59 45
 108 56 45
 109 56 42
 110 57 43
 106 57 45
 107 56 43
 108 57 44
 109 58 45
 110 56 44
 106 51 41
 107 52 42
 108 53 43
 109 54 44
 110 55 45
 123 49 21
 124 50 22
 121 50 23
 121 47 24
 122 48 25
 122 50 21
 121 48 22
 122 49 23
 123 50 24
 121 49 25
 128 54 26
 129 55 27
 126 55 28
 126 52 29
 127 53 30
 127 55 26
 126 53 27
 127 54 28
 128 55 29
 126 54 30
 121 58 29
 122 59 30
 123 56 30
 124 56 27
 125 57 28
 121 57 30
 122 56 28
 123 57 29
 124 58 30
 125 56 29
 121 51 26
 122 52 27
 123 53 28
 124 54 29
 125 55 30
 108 79 6
 109 80 7
 106 80 8
 106 77 9
 107 78 10
 107 80 6
 106 78 7
 107 79 8
 108 80 9
 106 79 10
 113 84 11
 114 85 12
 111 85 13
 111 82 14
 112 83 15
 112 85 11
 111 83 12
 112 84 13
 113 85 14
 111 84 15
 106 88 14
 107 89 15
 108 86 15
 109 86 12
 110 87 13
 106 87 15
 107 86 13
 108 87 14
 109 88 15
 110 86 14
 106 81 11
 107 82 12
 108 83 13
 109 84 14
 110 85 15
 123 64 6
 124 65 7
 121 65 8
 121 62 9
 122 63 10
 122 65 6
 121 63 7
 122 64 8
 123 65 9
 121 64 10
 128 69 11
 129 70 12
 126 70 13
 126 67 14
 127 68 15
 127 70 11
 126 68 12
 127 69 13
 128 70 14
 126 69 15
 121 73 14
 122 74 15
 123 71 15
 124 71 12
 125 72 13
 121 72 15
 122 71 13
 123 72 14
 124 73 15
 125 71 14
 121 66 11
 122 67 12
 123 68 13
 124 69 14
 125 70 15
